p cnf 15 20
-15 -14 10 0
-15 14 7 0
15 -8 5 0
15 5 -1 0
-14 13 -6 0
14 -10 8 0
14 10 -6 0
-14 -6 -3 0
-13 8 -1 0
-12 10 -5 0
11 -8 5 0
-11 3 2 0
-10 8 5 0
9 6 4 0
9 -3 2 0
8 -7 4 0
8 -7 2 0
8 5 -1 0
-7 -5 1 0
-6 -4 2 0
